language Essence 1.3

letting class be
        function(1 --> 6, 2 --> 2, 3 --> 6, 4 --> 2, 5 --> 1, 6 --> 5, 7 --> 3, 8 --> 2, 9 --> 8, 10 --> 8, 11 --> 4,
                 12 --> 1, 13 --> 6, 14 --> 4, 15 --> 2, 16 --> 4, 17 --> 6, 18 --> 6, 19 --> 5, 20 --> 3, 21 --> 6,
                 22 --> 7, 23 --> 5, 24 --> 8, 25 --> 8)
letting deck_length be 87
letting deck_width be 35
letting length be
        function(1 --> 4, 2 --> 1, 3 --> 1, 4 --> 1, 5 --> 1, 6 --> 1, 7 --> 13, 8 --> 1, 9 --> 1, 10 --> 1, 11 --> 1,
                 12 --> 1, 13 --> 9, 14 --> 1, 15 --> 1, 16 --> 1, 17 --> 16, 18 --> 1, 19 --> 1, 20 --> 1, 21 --> 1,
                 22 --> 1, 23 --> 1, 24 --> 1, 25 --> 1)
letting n_classes be 8
letting n_containers be 25
letting separation be function({1, 2} --> 25, {1, 4} --> 45, {1, 6} --> 43)
letting width be
        function(1 --> 1, 2 --> 1, 3 --> 16, 4 --> 12, 5 --> 14, 6 --> 25, 7 --> 34, 8 --> 12, 9 --> 12, 10 --> 25,
                 11 --> 11, 12 --> 25, 13 --> 35, 14 --> 4, 15 --> 26, 16 --> 17, 17 --> 34, 18 --> 1, 19 --> 15,
                 20 --> 4, 21 --> 30, 22 --> 26, 23 --> 30, 24 --> 1, 25 --> 1)
